Version identifier: 20.1.0.0 | 2020-11-10 | 9bedb6d68
Tried aggregator 2 times.
MIP Presolve eliminated 2042 rows and 1105 columns.
MIP Presolve modified 4738 coefficients.
Aggregator did 150 substitutions.
Reduced MIP has 2617 rows, 2060 columns, and 8528 nonzeros.
Reduced MIP has 360 binaries, 1700 generals, 0 SOSs, and 0 indicators.
Presolve time = 0.02 sec. (11.03 ticks)
Found incumbent of value 4042.000000 after 0.05 sec. (21.61 ticks)
Probing fixed 60 vars, tightened 823 bounds.
Probing time = 0.00 sec. (2.00 ticks)
Tried aggregator 2 times.
MIP Presolve eliminated 1162 rows and 224 columns.
MIP Presolve modified 285 coefficients.
Aggregator did 96 substitutions.
Reduced MIP has 1359 rows, 1740 columns, and 4394 nonzeros.
Reduced MIP has 518 binaries, 1222 generals, 0 SOSs, and 0 indicators.
Presolve time = 0.01 sec. (5.82 ticks)
Probing time = 0.00 sec. (0.35 ticks)
Tried aggregator 1 time.
Detecting symmetries...
MIP Presolve modified 551 coefficients.
Reduced MIP has 1359 rows, 1740 columns, and 4394 nonzeros.
Reduced MIP has 518 binaries, 1222 generals, 0 SOSs, and 0 indicators.
Presolve time = 0.01 sec. (3.46 ticks)
Probing time = 0.00 sec. (0.33 ticks)
Clique table members: 5.
MIP emphasis: balance optimality and feasibility.
MIP search method: dynamic search.
Parallel mode: deterministic, using up to 24 threads.
Root relaxation solution time = 0.01 sec. (3.32 ticks)

        Nodes                                         Cuts/
   Node  Left     Objective  IInf  Best Integer    Best Bound    ItCnt     Gap

*     0+    0                         4042.0000        0.0000           100.00%
      0     0        0.0000    68     4042.0000        0.0000      319  100.00%
      0     0        0.0909   209     4042.0000     Cuts: 222      733  100.00%
*     0+    0                           12.0000        0.0909            99.24%
      0     0        1.0000   210       12.0000     Cuts: 210     1039    8.33%
      0     0        1.0800   217       12.0000      Cuts: 36     1212    8.33%
*     0+    0                           11.0000       11.0000             0.00%
      0     0        cutoff             11.0000       11.0000     1212    0.00%
Elapsed time = 1.58 sec. (169.56 ticks, tree = 0.01 MB, solutions = 3)

Implied bound cuts applied:  47
Flow cuts applied:  14
Mixed integer rounding cuts applied:  31
Zero-half cuts applied:  97
Lift and project cuts applied:  1
Gomory fractional cuts applied:  47

Root node processing (before b&c):
  Real time             =    1.58 sec. (169.72 ticks)
Parallel b&c, 24 threads:
  Real time             =    0.00 sec. (0.00 ticks)
  Sync time (average)   =    0.00 sec.
  Wait time (average)   =    0.00 sec.
                          ------------
Total (root+branch&cut) =    1.58 sec. (169.72 ticks)

Solution status = Optimal
Solution LB = 11
Solution UB = 11
Runtime = 1.59139 seconds
	Command being timed: "/home/min/git_repos/CS598MEBProject/CNT-ILP/build/cnt -s 2 ./output/k8_n30/simC_c1_k8_n30_u1_s3_del04.input-right.cnp"
	User time (seconds): 24.88
	System time (seconds): 0.15
	Percent of CPU this job got: 1519%
	Elapsed (wall clock) time (h:mm:ss or m:ss): 0:01.64
	Average shared text size (kbytes): 0
	Average unshared data size (kbytes): 0
	Average stack size (kbytes): 0
	Average total size (kbytes): 0
	Maximum resident set size (kbytes): 129632
	Average resident set size (kbytes): 0
	Major (requiring I/O) page faults: 0
	Minor (reclaiming a frame) page faults: 42967
	Voluntary context switches: 6014
	Involuntary context switches: 3106
	Swaps: 0
	File system inputs: 0
	File system outputs: 24
	Socket messages sent: 0
	Socket messages received: 0
	Signals delivered: 0
	Page size (bytes): 4096
	Exit status: 0
